proyfinal/src/viki/013/experimentInOfficeAgust.take6.output/f218ebf2-76e6-41b0-a3e3-9b8569b1ba28.als.dat
{'cnf.clauses': '118081',
 'cnf.totvars': '69608',
 'conflict literals': '15',
 'conflicts': '9',
 'decisions': '6328',
 'memused.mb': '15.98',
 'outcome': 'UNSAT',
 'propagations': '28950',
 'restarts': '1',
 'solver.msecs': 29,
 'task.msecs': 84}
