proyfinal/src/viki/013/experimentInOfficeAgust.take6.output/f218ebf2-76e6-41b0-a3e3-9b8569b1ba28.als.out
Reading from standard input... Use '--help' for help.
============================[ Problem Statistics ]=============================
|                                                                             |
|  Number of variables:         69608                                         |
|  Number of clauses:          118081                                         |
|  Parse time:                   0.02 s                                       |
|                                                                             |
============================[ Search Statistics ]==============================
| Conflicts |          ORIGINAL         |          LEARNT          | Progress |
|           |    Vars  Clauses Literals |    Limit  Clauses Lit/Cl |          |
===============================================================================
===============================================================================
restarts              : 1
conflicts             : 9              (308 /sec)
decisions             : 6328           (0.00 % random) (216445 /sec)
propagations          : 28950          (990218 /sec)
conflict literals     : 15             (0.00 % deleted)
Memory used           : 15.98 MB
CPU time              : 0.029236 s

UNSATISFIABLE
